0 76 88
1 83 97
2 80 98
3 79 100
4 91 101
5 94 101
6 89 101
7 99 103
8 102 102
9 95 101
10 97 100
11 97 99
12 93 97
13 94 98
14 93 97
15 90 97
16 94 100
17 86 98
18 61 96
19 93 94
20 85 93
21 78 91
22 82 90
23 80 90
24 82 88
25 74 86
26 68 87
27 80 87
28 82 90
29 78 92
30 90 92
31 90 91
32 90 90
33 64 89
34 88 88
35 81 87
36 42 85
37 80 83
38 74 83
39 81 82
40 68 81
41 68 79
42 72 78
43 68 76
44 68 75
45 69 76
46 75 75
47 64 74
48 73 73
49 46 72
50 52 68
51 56 67
52 66 66
53 65 65
54 58 64
55 61 62
56 34 60
57 58 59
58 59 59
59 57 58
60 57 57
61 40 56
62 53 54
63 46 53
64 44 51
65 48 49
66 42 48
67 45 46
68 38 43
69 30 47
70 45 47
71 47 47
72 45 46
73 44 45
74 40 44
75 32 42
76 41 42
77 35 40
78 33 37
79 35 36
80 31 34
81 32 32
82 31 31
83 24 30
84 18 27
85 23 23
86 18 22
87 19 23
88 22 23
89 19 22
90 7 21
91 1 19
92 1 20
93 14 20
94 14 20
95 19 19
96 16 18
97 15 17
98 12 15
99 13 16
100 14 15
101 13 14
102 13 13
103 8 12
104 7 11
105 9 10
106 8 9
107 8 8
108 3 7
109 3 4
110 3 3
111 2 2

